
Gurobi 7.5.2 (linux64, Python) logging started Thu Mar  1 15:16:28 2018

Academic license - for non-commercial use only
Parameter OutputFlag unchanged
   Value: 1  Min: 0  Max: 1  Default: 1
Changed value of parameter TimeLimit to 1800.0
   Prev: 1e+100  Min: 0.0  Max: 1e+100  Default: 1e+100
Parameter Threads unchanged
   Value: 0  Min: 0  Max: 1024  Default: 0
Changed value of parameter LazyConstraints to 1
   Prev: 0  Min: 0  Max: 1  Default: 0
Optimize a model with 15 rows, 21 columns and 54 nonzeros
Variable types: 15 continuous, 6 integer (6 binary)
Coefficient statistics:
  Matrix range     [1e+00, 1e+00]
  Objective range  [2e+00, 7e+00]
  Bounds range     [1e+00, 1e+00]
  RHS range        [1e+00, 1e+00]
Presolve removed 5 rows and 2 columns
Presolve time: 0.00s
Presolved: 10 rows, 19 columns, 40 nonzeros
Variable types: 15 continuous, 4 integer (4 binary)

Root relaxation: objective 2.000000e+00, 2 iterations, 0.00 seconds

    Nodes    |    Current Node    |     Objective Bounds      |     Work
 Expl Unexpl |  Obj  Depth IntInf | Incumbent    BestBd   Gap | It/Node Time

     0     0    3.33333    0    3          -    3.33333      -     -    0s
*    0     0               0       4.0000000    4.00000  0.00%     -    0s

Cutting planes:
  Gomory: 1
  MIR: 1
  Flow cover: 1
  Lazy constraints: 2

Explored 1 nodes (7 simplex iterations) in 0.00 seconds
Thread count was 4 (of 4 available processors)

Solution count 1: 4 

Optimal solution found (tolerance 1.00e-04)
Best objective 4.000000000000e+00, best bound 4.000000000000e+00, gap 0.0000%

Gurobi 7.5.2 (linux64, Python) logging started Thu Mar  1 15:17:45 2018

Academic license - for non-commercial use only
Parameter OutputFlag unchanged
   Value: 1  Min: 0  Max: 1  Default: 1
Changed value of parameter TimeLimit to 1800.0
   Prev: 1e+100  Min: 0.0  Max: 1e+100  Default: 1e+100
Parameter Threads unchanged
   Value: 0  Min: 0  Max: 1024  Default: 0
Changed value of parameter LazyConstraints to 1
   Prev: 0  Min: 0  Max: 1  Default: 0
Optimize a model with 15 rows, 21 columns and 54 nonzeros
Variable types: 15 continuous, 6 integer (6 binary)
Coefficient statistics:
  Matrix range     [1e+00, 1e+00]
  Objective range  [2e+00, 7e+00]
  Bounds range     [1e+00, 1e+00]
  RHS range        [1e+00, 1e+00]
Presolve removed 5 rows and 2 columns
Presolve time: 0.00s
Presolved: 10 rows, 19 columns, 40 nonzeros
Variable types: 15 continuous, 4 integer (4 binary)

Root relaxation: objective 2.000000e+00, 2 iterations, 0.00 seconds

    Nodes    |    Current Node    |     Objective Bounds      |     Work
 Expl Unexpl |  Obj  Depth IntInf | Incumbent    BestBd   Gap | It/Node Time

     0     0    3.33333    0    3          -    3.33333      -     -    0s
*    0     0               0       4.0000000    4.00000  0.00%     -    0s

Cutting planes:
  Gomory: 1
  MIR: 1
  Flow cover: 1
  Lazy constraints: 2

Explored 1 nodes (7 simplex iterations) in 0.00 seconds
Thread count was 4 (of 4 available processors)

Solution count 1: 4 

Optimal solution found (tolerance 1.00e-04)
Best objective 4.000000000000e+00, best bound 4.000000000000e+00, gap 0.0000%
